p cnf 307 929
6 -8 0
7 -8 0
-6 -7 8 0
6 -10 0
7 -10 0
9 -10 0
-6 -7 -9 10 0
6 -12 0
7 -12 0
9 -12 0
11 -12 0
-6 -7 -9 -11 12 0
6 -14 0
7 -14 0
9 -14 0
11 -14 0
13 -14 0
-6 -7 -9 -11 -13 14 0
6 -16 0
7 -16 0
9 -16 0
11 -16 0
13 -16 0
15 -16 0
-6 -7 -9 -11 -13 -15 16 0
6 -18 0
7 -18 0
9 -18 0
11 -18 0
13 -18 0
15 -18 0
17 -18 0
-6 -7 -9 -11 -13 -15 -17 18 0
6 -20 0
7 -20 0
9 -20 0
11 -20 0
13 -20 0
15 -20 0
17 -20 0
19 -20 0
-6 -7 -9 -11 -13 -15 -17 -19 20 0
6 -22 0
7 -22 0
9 -22 0
11 -22 0
13 -22 0
15 -22 0
17 -22 0
19 -22 0
21 -22 0
-6 -7 -9 -11 -13 -15 -17 -19 -21 22 0
6 -24 0
7 -24 0
9 -24 0
11 -24 0
13 -24 0
15 -24 0
17 -24 0
19 -24 0
21 -24 0
23 -24 0
-6 -7 -9 -11 -13 -15 -17 -19 -21 -23 24 0
6 -26 0
7 -26 0
9 -26 0
11 -26 0
13 -26 0
15 -26 0
17 -26 0
19 -26 0
21 -26 0
23 -26 0
25 -26 0
-6 -7 -9 -11 -13 -15 -17 -19 -21 -23 -25 26 0
6 -28 0
7 -28 0
9 -28 0
11 -28 0
13 -28 0
15 -28 0
17 -28 0
19 -28 0
21 -28 0
23 -28 0
25 -28 0
27 -28 0
-6 -7 -9 -11 -13 -15 -17 -19 -21 -23 -25 -27 28 0
6 -30 0
7 -30 0
9 -30 0
11 -30 0
13 -30 0
15 -30 0
17 -30 0
19 -30 0
21 -30 0
23 -30 0
25 -30 0
27 -30 0
29 -30 0
-6 -7 -9 -11 -13 -15 -17 -19 -21 -23 -25 -27 -29 30 0
6 -32 0
7 -32 0
9 -32 0
11 -32 0
13 -32 0
15 -32 0
17 -32 0
19 -32 0
21 -32 0
23 -32 0
25 -32 0
27 -32 0
29 -32 0
31 -32 0
-6 -7 -9 -11 -13 -15 -17 -19 -21 -23 -25 -27 -29 -31 32 0
6 -34 0
7 -34 0
9 -34 0
11 -34 0
13 -34 0
15 -34 0
17 -34 0
19 -34 0
21 -34 0
23 -34 0
25 -34 0
27 -34 0
29 -34 0
31 -34 0
33 -34 0
-6 -7 -9 -11 -13 -15 -17 -19 -21 -23 -25 -27 -29 -31 -33 34 0
6 -36 0
7 -36 0
9 -36 0
11 -36 0
13 -36 0
15 -36 0
17 -36 0
19 -36 0
21 -36 0
23 -36 0
25 -36 0
27 -36 0
29 -36 0
31 -36 0
33 -36 0
35 -36 0
-6 -7 -9 -11 -13 -15 -17 -19 -21 -23 -25 -27 -29 -31 -33 -35 36 0
6 -38 0
7 -38 0
9 -38 0
11 -38 0
13 -38 0
15 -38 0
17 -38 0
19 -38 0
21 -38 0
23 -38 0
25 -38 0
27 -38 0
29 -38 0
31 -38 0
33 -38 0
35 -38 0
37 -38 0
-6 -7 -9 -11 -13 -15 -17 -19 -21 -23 -25 -27 -29 -31 -33 -35 -37 38 0
6 -40 0
7 -40 0
9 -40 0
11 -40 0
13 -40 0
15 -40 0
17 -40 0
19 -40 0
21 -40 0
23 -40 0
25 -40 0
27 -40 0
29 -40 0
31 -40 0
33 -40 0
35 -40 0
37 -40 0
39 -40 0
-6 -7 -9 -11 -13 -15 -17 -19 -21 -23 -25 -27 -29 -31 -33 -35 -37 -39 40 0
6 -41 0
-7 -41 0
-6 7 41 0
6 -42 0
7 -42 0
-9 -42 0
-6 -7 9 42 0
6 -43 0
7 -43 0
9 -43 0
-11 -43 0
-6 -7 -9 11 43 0
6 -44 0
7 -44 0
9 -44 0
11 -44 0
-13 -44 0
-6 -7 -9 -11 13 44 0
6 -45 0
7 -45 0
9 -45 0
11 -45 0
13 -45 0
-15 -45 0
-6 -7 -9 -11 -13 15 45 0
6 -46 0
7 -46 0
9 -46 0
11 -46 0
13 -46 0
15 -46 0
-17 -46 0
-6 -7 -9 -11 -13 -15 17 46 0
6 -47 0
7 -47 0
9 -47 0
11 -47 0
13 -47 0
15 -47 0
17 -47 0
-19 -47 0
-6 -7 -9 -11 -13 -15 -17 19 47 0
6 -48 0
7 -48 0
9 -48 0
11 -48 0
13 -48 0
15 -48 0
17 -48 0
19 -48 0
-21 -48 0
-6 -7 -9 -11 -13 -15 -17 -19 21 48 0
6 -49 0
7 -49 0
9 -49 0
11 -49 0
13 -49 0
15 -49 0
17 -49 0
19 -49 0
21 -49 0
-23 -49 0
-6 -7 -9 -11 -13 -15 -17 -19 -21 23 49 0
6 -50 0
7 -50 0
9 -50 0
11 -50 0
13 -50 0
15 -50 0
17 -50 0
19 -50 0
21 -50 0
23 -50 0
-25 -50 0
-6 -7 -9 -11 -13 -15 -17 -19 -21 -23 25 50 0
6 -51 0
7 -51 0
9 -51 0
11 -51 0
13 -51 0
15 -51 0
17 -51 0
19 -51 0
21 -51 0
23 -51 0
25 -51 0
-27 -51 0
-6 -7 -9 -11 -13 -15 -17 -19 -21 -23 -25 27 51 0
6 -52 0
7 -52 0
9 -52 0
11 -52 0
13 -52 0
15 -52 0
17 -52 0
19 -52 0
21 -52 0
23 -52 0
25 -52 0
27 -52 0
-29 -52 0
-6 -7 -9 -11 -13 -15 -17 -19 -21 -23 -25 -27 29 52 0
6 -53 0
7 -53 0
9 -53 0
11 -53 0
13 -53 0
15 -53 0
17 -53 0
19 -53 0
21 -53 0
23 -53 0
25 -53 0
27 -53 0
29 -53 0
-31 -53 0
-6 -7 -9 -11 -13 -15 -17 -19 -21 -23 -25 -27 -29 31 53 0
6 -54 0
7 -54 0
9 -54 0
11 -54 0
13 -54 0
15 -54 0
17 -54 0
19 -54 0
21 -54 0
23 -54 0
25 -54 0
27 -54 0
29 -54 0
31 -54 0
-33 -54 0
-6 -7 -9 -11 -13 -15 -17 -19 -21 -23 -25 -27 -29 -31 33 54 0
6 -55 0
7 -55 0
9 -55 0
11 -55 0
13 -55 0
15 -55 0
17 -55 0
19 -55 0
21 -55 0
23 -55 0
25 -55 0
27 -55 0
29 -55 0
31 -55 0
33 -55 0
-35 -55 0
-6 -7 -9 -11 -13 -15 -17 -19 -21 -23 -25 -27 -29 -31 -33 35 55 0
6 -56 0
7 -56 0
9 -56 0
11 -56 0
13 -56 0
15 -56 0
17 -56 0
19 -56 0
21 -56 0
23 -56 0
25 -56 0
27 -56 0
29 -56 0
31 -56 0
33 -56 0
35 -56 0
-37 -56 0
-6 -7 -9 -11 -13 -15 -17 -19 -21 -23 -25 -27 -29 -31 -33 -35 37 56 0
6 -57 0
7 -57 0
9 -57 0
11 -57 0
13 -57 0
15 -57 0
17 -57 0
19 -57 0
21 -57 0
23 -57 0
25 -57 0
27 -57 0
29 -57 0
31 -57 0
33 -57 0
35 -57 0
37 -57 0
-39 -57 0
-6 -7 -9 -11 -13 -15 -17 -19 -21 -23 -25 -27 -29 -31 -33 -35 -37 39 57 0
58 0
91 -99 0
-92 -99 0
-93 -99 0
-94 -99 0
-95 -99 0
96 -99 0
97 -99 0
-98 -99 0
-91 92 93 94 95 -96 -97 98 99 0
-6 99 -100 0
6 -99 -100 0
-6 -99 100 0
6 99 100 0
-100 0
-91 -101 0
92 -101 0
-93 -101 0
-94 -101 0
-95 -101 0
96 -101 0
97 -101 0
-98 -101 0
91 -92 93 94 95 -96 -97 98 101 0
-7 101 -102 0
7 -101 -102 0
-7 -101 102 0
7 101 102 0
-102 0
91 -103 0
92 -103 0
-93 -103 0
-94 -103 0
-95 -103 0
96 -103 0
97 -103 0
-98 -103 0
-91 -92 93 94 95 -96 -97 98 103 0
-9 103 -104 0
9 -103 -104 0
-9 -103 104 0
9 103 104 0
-104 0
-91 -105 0
-92 -105 0
93 -105 0
-94 -105 0
-95 -105 0
96 -105 0
97 -105 0
-98 -105 0
91 92 -93 94 95 -96 -97 98 105 0
-11 105 -106 0
11 -105 -106 0
-11 -105 106 0
11 105 106 0
-106 0
91 -107 0
-92 -107 0
93 -107 0
-94 -107 0
-95 -107 0
96 -107 0
97 -107 0
-98 -107 0
-91 92 -93 94 95 -96 -97 98 107 0
-13 107 -108 0
13 -107 -108 0
-13 -107 108 0
13 107 108 0
-108 0
-91 -109 0
92 -109 0
93 -109 0
-94 -109 0
-95 -109 0
96 -109 0
97 -109 0
-98 -109 0
91 -92 -93 94 95 -96 -97 98 109 0
-15 109 -110 0
15 -109 -110 0
-15 -109 110 0
15 109 110 0
-110 0
91 -111 0
92 -111 0
93 -111 0
-94 -111 0
-95 -111 0
96 -111 0
97 -111 0
-98 -111 0
-91 -92 -93 94 95 -96 -97 98 111 0
-17 111 -112 0
17 -111 -112 0
-17 -111 112 0
17 111 112 0
-112 0
-91 -113 0
-92 -113 0
-93 -113 0
94 -113 0
-95 -113 0
96 -113 0
97 -113 0
-98 -113 0
91 92 93 -94 95 -96 -97 98 113 0
-19 113 -114 0
19 -113 -114 0
-19 -113 114 0
19 113 114 0
-114 0
91 -115 0
-92 -115 0
-93 -115 0
94 -115 0
-95 -115 0
96 -115 0
97 -115 0
-98 -115 0
-91 92 93 -94 95 -96 -97 98 115 0
-21 115 -116 0
21 -115 -116 0
-21 -115 116 0
21 115 116 0
-116 0
-91 -117 0
92 -117 0
-93 -117 0
94 -117 0
-95 -117 0
96 -117 0
97 -117 0
-98 -117 0
91 -92 93 -94 95 -96 -97 98 117 0
-23 117 -118 0
23 -117 -118 0
-23 -117 118 0
23 117 118 0
-118 0
91 -119 0
92 -119 0
-93 -119 0
94 -119 0
-95 -119 0
96 -119 0
97 -119 0
-98 -119 0
-91 -92 93 -94 95 -96 -97 98 119 0
-25 119 -120 0
25 -119 -120 0
-25 -119 120 0
25 119 120 0
-120 0
-91 -121 0
-92 -121 0
93 -121 0
94 -121 0
-95 -121 0
96 -121 0
97 -121 0
-98 -121 0
91 92 -93 -94 95 -96 -97 98 121 0
-27 121 -122 0
27 -121 -122 0
-27 -121 122 0
27 121 122 0
-122 0
91 -123 0
-92 -123 0
93 -123 0
94 -123 0
-95 -123 0
96 -123 0
97 -123 0
-98 -123 0
-91 92 -93 -94 95 -96 -97 98 123 0
-29 123 -124 0
29 -123 -124 0
-29 -123 124 0
29 123 124 0
-124 0
-91 -125 0
92 -125 0
93 -125 0
94 -125 0
-95 -125 0
96 -125 0
97 -125 0
-98 -125 0
91 -92 -93 -94 95 -96 -97 98 125 0
-31 125 -126 0
31 -125 -126 0
-31 -125 126 0
31 125 126 0
-126 0
91 -127 0
92 -127 0
93 -127 0
94 -127 0
-95 -127 0
96 -127 0
97 -127 0
-98 -127 0
-91 -92 -93 -94 95 -96 -97 98 127 0
-33 127 -128 0
33 -127 -128 0
-33 -127 128 0
33 127 128 0
-128 0
-91 -129 0
-92 -129 0
-93 -129 0
-94 -129 0
95 -129 0
96 -129 0
97 -129 0
-98 -129 0
91 92 93 94 -95 -96 -97 98 129 0
-35 129 -130 0
35 -129 -130 0
-35 -129 130 0
35 129 130 0
-130 0
91 -131 0
-92 -131 0
-93 -131 0
-94 -131 0
95 -131 0
96 -131 0
97 -131 0
-98 -131 0
-91 92 93 94 -95 -96 -97 98 131 0
-37 131 -132 0
37 -131 -132 0
-37 -131 132 0
37 131 132 0
-132 0
-91 -133 0
92 -133 0
-93 -133 0
-94 -133 0
95 -133 0
96 -133 0
97 -133 0
-98 -133 0
91 -92 93 94 -95 -96 -97 98 133 0
-39 133 -134 0
39 -133 -134 0
-39 -133 134 0
39 133 134 0
-134 0
37 135 0
-39 135 0
-37 39 -135 0
35 -136 0
135 -136 0
-35 -135 136 0
35 -137 0
37 -137 0
-35 -37 137 0
33 138 0
-136 138 0
-33 136 -138 0
33 139 0
-137 139 0
-33 137 -139 0
31 -140 0
138 -140 0
-31 -138 140 0
31 141 0
-139 141 0
-31 139 -141 0
31 142 0
33 142 0
-31 -33 -142 0
31 143 0
33 143 0
-31 -33 -143 0
31 -144 0
33 -144 0
-31 -33 144 0
29 145 0
-140 145 0
-29 140 -145 0
29 -146 0
141 -146 0
-29 -141 146 0
29 147 0
-142 147 0
-29 142 -147 0
29 148 0
-143 148 0
-29 143 -148 0
29 -149 0
144 -149 0
-29 -144 149 0
27 -150 0
145 -150 0
-27 -145 150 0
27 -151 0
146 -151 0
-27 -146 151 0
27 152 0
-147 152 0
-27 147 -152 0
27 153 0
-148 153 0
-27 148 -153 0
27 -154 0
149 -154 0
-27 -149 154 0
25 155 0
-150 155 0
-25 150 -155 0
25 156 0
-151 156 0
-25 151 -156 0
25 -157 0
152 -157 0
-25 -152 157 0
25 158 0
-153 158 0
-25 153 -158 0
25 -159 0
154 -159 0
-25 -154 159 0
23 -160 0
155 -160 0
-23 -155 160 0
23 161 0
-156 161 0
-23 156 -161 0
23 -162 0
157 -162 0
-23 -157 162 0
23 163 0
-158 163 0
-23 158 -163 0
23 -164 0
159 -164 0
-23 -159 164 0
21 165 0
-160 165 0
-21 160 -165 0
21 -166 0
161 -166 0
-21 -161 166 0
21 -167 0
162 -167 0
-21 -162 167 0
21 168 0
-163 168 0
-21 163 -168 0
21 -169 0
164 -169 0
-21 -164 169 0
19 -170 0
165 -170 0
-19 -165 170 0
19 -171 0
166 -171 0
-19 -166 171 0
19 -172 0
167 -172 0
-19 -167 172 0
19 173 0
-168 173 0
-19 168 -173 0
19 -174 0
169 -174 0
-19 -169 174 0
17 175 0
-170 175 0
-17 170 -175 0
17 176 0
-171 176 0
-17 171 -176 0
17 177 0
-172 177 0
-17 172 -177 0
17 -178 0
173 -178 0
-17 -173 178 0
17 -179 0
174 -179 0
-17 -174 179 0
15 -180 0
175 -180 0
-15 -175 180 0
15 181 0
-176 181 0
-15 176 -181 0
15 182 0
-177 182 0
-15 177 -182 0
15 -183 0
178 -183 0
-15 -178 183 0
15 -184 0
179 -184 0
-15 -179 184 0
13 185 0
-180 185 0
-13 180 -185 0
13 -186 0
181 -186 0
-13 -181 186 0
13 187 0
-182 187 0
-13 182 -187 0
13 -188 0
183 -188 0
-13 -183 188 0
13 -189 0
184 -189 0
-13 -184 189 0
11 -190 0
185 -190 0
-11 -185 190 0
11 -191 0
186 -191 0
-11 -186 191 0
11 192 0
-187 192 0
-11 187 -192 0
11 -193 0
188 -193 0
-11 -188 193 0
11 -194 0
189 -194 0
-11 -189 194 0
9 195 0
-190 195 0
-9 190 -195 0
9 196 0
-191 196 0
-9 191 -196 0
9 -197 0
192 -197 0
-9 -192 197 0
9 -198 0
193 -198 0
-9 -193 198 0
9 -199 0
194 -199 0
-9 -194 199 0
7 -200 0
195 -200 0
-7 -195 200 0
7 201 0
-196 201 0
-7 196 -201 0
7 -202 0
197 -202 0
-7 -197 202 0
7 -203 0
198 -203 0
-7 -198 203 0
7 -204 0
199 -204 0
-7 -199 204 0
6 1 0
-200 1 0
-6 200 -1 0
6 -2 0
201 -2 0
-6 -201 2 0
6 -3 0
202 -3 0
-6 -202 3 0
6 -4 0
203 -4 0
-6 -203 4 0
6 -5 0
204 -5 0
-6 -204 5 0
59 -269 0
-59 269 0
60 -270 0
-60 270 0
61 -271 0
-61 271 0
62 -272 0
-62 272 0
63 -273 0
-63 273 0
64 -274 0
-64 274 0
65 -275 0
-65 275 0
66 -276 0
-66 276 0
67 -277 0
-67 277 0
68 -278 0
-68 278 0
69 -279 0
-69 279 0
70 -280 0
-70 280 0
71 -281 0
-71 281 0
72 -282 0
-72 282 0
73 -283 0
-73 283 0
74 -284 0
-74 284 0
75 -285 0
-75 285 0
76 -286 0
-76 286 0
77 -287 0
-77 287 0
78 -288 0
-78 288 0
79 -289 0
-79 289 0
80 -290 0
-80 290 0
81 -291 0
-81 291 0
82 -292 0
-82 292 0
83 -293 0
-83 293 0
84 -294 0
-84 294 0
85 -295 0
-85 295 0
86 -296 0
-86 296 0
87 -297 0
-87 297 0
88 -298 0
-88 298 0
89 -299 0
-89 299 0
90 -300 0
-90 300 0
-301 -303 -305 0
301 303 -305 0
-301 303 305 0
301 -303 305 0
-302 -304 -306 0
302 304 -306 0
-302 304 306 0
302 -304 306 0
-305 -307 0
-306 -307 0
305 306 307 0
-58 307 0
58 -307 0
c __CPROVER_malloc_is_new_array#1 FALSE
c goto_symex::\guard#1 6
c goto_symex::\guard#2 7
c goto_symex::\guard#3 9
c goto_symex::\guard#4 11
c goto_symex::\guard#5 13
c goto_symex::\guard#6 15
c goto_symex::\guard#7 17
c goto_symex::\guard#8 19
c goto_symex::\guard#9 21
c goto_symex::\guard#10 23
c goto_symex::\guard#11 25
c goto_symex::\guard#12 27
c goto_symex::\guard#13 29
c goto_symex::\guard#14 31
c goto_symex::\guard#15 33
c goto_symex::\guard#16 35
c goto_symex::\guard#17 37
c goto_symex::\guard#18 39
c do_switch::1::i!0@1#1 237 238 239 240 241 242 243 244 245 246 247 248 249 250 251 252 253 254 255 256 257 258 259 260 261 262 263 264 265 266 267 268
c do_switch::1::__return_value!0@1#1 205 206 207 208 209 210 211 212 213 214 215 216 217 218 219 220 221 222 223 224 225 226 227 228 229 230 231 232 233 234 235 236
c do_switch::1::__return_value!0@1#2 1 2 3 4 5 FALSE FALSE FALSE FALSE FALSE FALSE FALSE FALSE FALSE FALSE FALSE FALSE FALSE FALSE FALSE FALSE FALSE FALSE FALSE FALSE FALSE FALSE FALSE FALSE FALSE FALSE FALSE
c do_switch::1::i!0@1#56 200 201 202 203 204 FALSE FALSE FALSE FALSE FALSE FALSE FALSE FALSE FALSE FALSE FALSE FALSE FALSE FALSE FALSE FALSE FALSE FALSE FALSE FALSE FALSE FALSE FALSE FALSE FALSE FALSE FALSE
c do_switch::1::i!0@1#54 190 191 192 193 194 FALSE FALSE FALSE FALSE FALSE FALSE FALSE FALSE FALSE FALSE FALSE FALSE FALSE FALSE FALSE FALSE FALSE FALSE FALSE FALSE FALSE FALSE FALSE FALSE FALSE FALSE FALSE
c do_switch::1::i!0@1#53 185 186 187 188 189 FALSE FALSE FALSE FALSE FALSE FALSE FALSE FALSE FALSE FALSE FALSE FALSE FALSE FALSE FALSE FALSE FALSE FALSE FALSE FALSE FALSE FALSE FALSE FALSE FALSE FALSE FALSE
c do_switch::1::i!0@1#52 180 181 182 183 184 FALSE FALSE FALSE FALSE FALSE FALSE FALSE FALSE FALSE FALSE FALSE FALSE FALSE FALSE FALSE FALSE FALSE FALSE FALSE FALSE FALSE FALSE FALSE FALSE FALSE FALSE FALSE
c do_switch::1::i!0@1#51 175 176 177 178 179 FALSE FALSE FALSE FALSE FALSE FALSE FALSE FALSE FALSE FALSE FALSE FALSE FALSE FALSE FALSE FALSE FALSE FALSE FALSE FALSE FALSE FALSE FALSE FALSE FALSE FALSE FALSE
c do_switch::1::i!0@1#50 170 171 172 173 174 FALSE FALSE FALSE FALSE FALSE FALSE FALSE FALSE FALSE FALSE FALSE FALSE FALSE FALSE FALSE FALSE FALSE FALSE FALSE FALSE FALSE FALSE FALSE FALSE FALSE FALSE FALSE
c do_switch::1::i!0@1#49 165 166 167 168 169 FALSE FALSE FALSE FALSE FALSE FALSE FALSE FALSE FALSE FALSE FALSE FALSE FALSE FALSE FALSE FALSE FALSE FALSE FALSE FALSE FALSE FALSE FALSE FALSE FALSE FALSE FALSE
c do_switch::1::i!0@1#48 160 161 162 163 164 FALSE FALSE FALSE FALSE FALSE FALSE FALSE FALSE FALSE FALSE FALSE FALSE FALSE FALSE FALSE FALSE FALSE FALSE FALSE FALSE FALSE FALSE FALSE FALSE FALSE FALSE FALSE
c do_switch::1::i!0@1#47 155 156 157 158 159 FALSE FALSE FALSE FALSE FALSE FALSE FALSE FALSE FALSE FALSE FALSE FALSE FALSE FALSE FALSE FALSE FALSE FALSE FALSE FALSE FALSE FALSE FALSE FALSE FALSE FALSE FALSE
c do_switch::1::i!0@1#46 150 151 152 153 154 FALSE FALSE FALSE FALSE FALSE FALSE FALSE FALSE FALSE FALSE FALSE FALSE FALSE FALSE FALSE FALSE FALSE FALSE FALSE FALSE FALSE FALSE FALSE FALSE FALSE FALSE FALSE
c do_switch::1::i!0@1#45 145 146 147 148 149 FALSE FALSE FALSE FALSE FALSE FALSE FALSE FALSE FALSE FALSE FALSE FALSE FALSE FALSE FALSE FALSE FALSE FALSE FALSE FALSE FALSE FALSE FALSE FALSE FALSE FALSE FALSE
c do_switch::1::i!0@1#44 140 141 142 143 144 FALSE FALSE FALSE FALSE FALSE FALSE FALSE FALSE FALSE FALSE FALSE FALSE FALSE FALSE FALSE FALSE FALSE FALSE FALSE FALSE FALSE FALSE FALSE FALSE FALSE FALSE FALSE
c do_switch::1::i!0@1#43 138 139 -33 -33 33 FALSE FALSE FALSE FALSE FALSE FALSE FALSE FALSE FALSE FALSE FALSE FALSE FALSE FALSE FALSE FALSE FALSE FALSE FALSE FALSE FALSE FALSE FALSE FALSE FALSE FALSE FALSE
c do_switch::1::i!0@1#42 136 137 FALSE FALSE TRUE FALSE FALSE FALSE FALSE FALSE FALSE FALSE FALSE FALSE FALSE FALSE FALSE FALSE FALSE FALSE FALSE FALSE FALSE FALSE FALSE FALSE FALSE FALSE FALSE FALSE FALSE FALSE
c do_switch::1::i!0@1#41 135 37 FALSE FALSE TRUE FALSE FALSE FALSE FALSE FALSE FALSE FALSE FALSE FALSE FALSE FALSE FALSE FALSE FALSE FALSE FALSE FALSE FALSE FALSE FALSE FALSE FALSE FALSE FALSE FALSE FALSE FALSE
c do_switch::1::i!0@1#40 39 TRUE FALSE FALSE TRUE FALSE FALSE FALSE FALSE FALSE FALSE FALSE FALSE FALSE FALSE FALSE FALSE FALSE FALSE FALSE FALSE FALSE FALSE FALSE FALSE FALSE FALSE FALSE FALSE FALSE FALSE FALSE
c do_switch::1::i!0@1#39 TRUE TRUE FALSE FALSE TRUE FALSE FALSE FALSE FALSE FALSE FALSE FALSE FALSE FALSE FALSE FALSE FALSE FALSE FALSE FALSE FALSE FALSE FALSE FALSE FALSE FALSE FALSE FALSE FALSE FALSE FALSE FALSE
c do_switch::1::i!0@1#38 FALSE FALSE FALSE FALSE FALSE FALSE FALSE FALSE FALSE FALSE FALSE FALSE FALSE FALSE FALSE FALSE FALSE FALSE FALSE FALSE FALSE FALSE FALSE FALSE FALSE FALSE FALSE FALSE FALSE FALSE FALSE FALSE
c do_switch::1::i!0@1#37 FALSE TRUE FALSE FALSE TRUE FALSE FALSE FALSE FALSE FALSE FALSE FALSE FALSE FALSE FALSE FALSE FALSE FALSE FALSE FALSE FALSE FALSE FALSE FALSE FALSE FALSE FALSE FALSE FALSE FALSE FALSE FALSE
c do_switch::1::i!0@1#36 FALSE FALSE FALSE FALSE FALSE FALSE FALSE FALSE FALSE FALSE FALSE FALSE FALSE FALSE FALSE FALSE FALSE FALSE FALSE FALSE FALSE FALSE FALSE FALSE FALSE FALSE FALSE FALSE FALSE FALSE FALSE FALSE
c do_switch::1::i!0@1#5 FALSE TRUE FALSE FALSE FALSE FALSE FALSE FALSE FALSE FALSE FALSE FALSE FALSE FALSE FALSE FALSE FALSE FALSE FALSE FALSE FALSE FALSE FALSE FALSE FALSE FALSE FALSE FALSE FALSE FALSE FALSE FALSE
c do_switch::1::i!0@1#55 195 196 197 198 199 FALSE FALSE FALSE FALSE FALSE FALSE FALSE FALSE FALSE FALSE FALSE FALSE FALSE FALSE FALSE FALSE FALSE FALSE FALSE FALSE FALSE FALSE FALSE FALSE FALSE FALSE FALSE
c __CPROVER_dead_object#1 FALSE FALSE FALSE FALSE FALSE FALSE FALSE FALSE FALSE FALSE FALSE FALSE FALSE FALSE FALSE FALSE FALSE FALSE FALSE FALSE FALSE FALSE FALSE FALSE FALSE FALSE FALSE FALSE FALSE FALSE FALSE FALSE
c do_switch::1::i!0@1#7 TRUE TRUE FALSE FALSE FALSE FALSE FALSE FALSE FALSE FALSE FALSE FALSE FALSE FALSE FALSE FALSE FALSE FALSE FALSE FALSE FALSE FALSE FALSE FALSE FALSE FALSE FALSE FALSE FALSE FALSE FALSE FALSE
c do_switch::1::i!0@1#57 1 2 3 4 5 FALSE FALSE FALSE FALSE FALSE FALSE FALSE FALSE FALSE FALSE FALSE FALSE FALSE FALSE FALSE FALSE FALSE FALSE FALSE FALSE FALSE FALSE FALSE FALSE FALSE FALSE FALSE
c __CPROVER_deallocated#1 FALSE FALSE FALSE FALSE FALSE FALSE FALSE FALSE FALSE FALSE FALSE FALSE FALSE FALSE FALSE FALSE FALSE FALSE FALSE FALSE FALSE FALSE FALSE FALSE FALSE FALSE FALSE FALSE FALSE FALSE FALSE FALSE
c _start::src$object#0 91 92 93 94 95 96 97 98
c do_switch::1::i!0@1#31 TRUE TRUE TRUE TRUE FALSE FALSE FALSE FALSE FALSE FALSE FALSE FALSE FALSE FALSE FALSE FALSE FALSE FALSE FALSE FALSE FALSE FALSE FALSE FALSE FALSE FALSE FALSE FALSE FALSE FALSE FALSE FALSE
c do_switch::1::i!0@1#3 TRUE FALSE FALSE FALSE FALSE FALSE FALSE FALSE FALSE FALSE FALSE FALSE FALSE FALSE FALSE FALSE FALSE FALSE FALSE FALSE FALSE FALSE FALSE FALSE FALSE FALSE FALSE FALSE FALSE FALSE FALSE FALSE
c do_switch::src!0@1#1 59 60 61 62 63 64 65 66 67 68 69 70 71 72 73 74 75 76 77 78 79 80 81 82 83 84 85 86 87 88 89 90
c do_switch::1::i!0@1#27 TRUE FALSE TRUE TRUE FALSE FALSE FALSE FALSE FALSE FALSE FALSE FALSE FALSE FALSE FALSE FALSE FALSE FALSE FALSE FALSE FALSE FALSE FALSE FALSE FALSE FALSE FALSE FALSE FALSE FALSE FALSE FALSE
c do_switch::1::i!0@1#8 FALSE FALSE FALSE FALSE FALSE FALSE FALSE FALSE FALSE FALSE FALSE FALSE FALSE FALSE FALSE FALSE FALSE FALSE FALSE FALSE FALSE FALSE FALSE FALSE FALSE FALSE FALSE FALSE FALSE FALSE FALSE FALSE
c __CPROVER_malloc_object#1 FALSE FALSE FALSE FALSE FALSE FALSE FALSE FALSE FALSE FALSE FALSE FALSE FALSE FALSE FALSE FALSE FALSE FALSE FALSE FALSE FALSE FALSE FALSE FALSE FALSE FALSE FALSE FALSE FALSE FALSE FALSE FALSE
c do_switch::1::i!0@1#9 FALSE FALSE TRUE FALSE FALSE FALSE FALSE FALSE FALSE FALSE FALSE FALSE FALSE FALSE FALSE FALSE FALSE FALSE FALSE FALSE FALSE FALSE FALSE FALSE FALSE FALSE FALSE FALSE FALSE FALSE FALSE FALSE
c _start::src!0#1 59 60 61 62 63 64 65 66 67 68 69 70 71 72 73 74 75 76 77 78 79 80 81 82 83 84 85 86 87 88 89 90
c do_switch::1::i!0@1#20 FALSE FALSE FALSE FALSE FALSE FALSE FALSE FALSE FALSE FALSE FALSE FALSE FALSE FALSE FALSE FALSE FALSE FALSE FALSE FALSE FALSE FALSE FALSE FALSE FALSE FALSE FALSE FALSE FALSE FALSE FALSE FALSE
c do_switch::1::i!0@1#6 FALSE FALSE FALSE FALSE FALSE FALSE FALSE FALSE FALSE FALSE FALSE FALSE FALSE FALSE FALSE FALSE FALSE FALSE FALSE FALSE FALSE FALSE FALSE FALSE FALSE FALSE FALSE FALSE FALSE FALSE FALSE FALSE
c do_switch::1::i!0@1#2 FALSE FALSE FALSE FALSE FALSE FALSE FALSE FALSE FALSE FALSE FALSE FALSE FALSE FALSE FALSE FALSE FALSE FALSE FALSE FALSE FALSE FALSE FALSE FALSE FALSE FALSE FALSE FALSE FALSE FALSE FALSE FALSE
c do_switch::1::i!0@1#30 FALSE FALSE FALSE FALSE FALSE FALSE FALSE FALSE FALSE FALSE FALSE FALSE FALSE FALSE FALSE FALSE FALSE FALSE FALSE FALSE FALSE FALSE FALSE FALSE FALSE FALSE FALSE FALSE FALSE FALSE FALSE FALSE
c __CPROVER_malloc_size#1 FALSE FALSE FALSE FALSE FALSE FALSE FALSE FALSE FALSE FALSE FALSE FALSE FALSE FALSE FALSE FALSE FALSE FALSE FALSE FALSE FALSE FALSE FALSE FALSE FALSE FALSE FALSE FALSE FALSE FALSE FALSE FALSE
c do_switch::1::i!0@1#10 FALSE FALSE FALSE FALSE FALSE FALSE FALSE FALSE FALSE FALSE FALSE FALSE FALSE FALSE FALSE FALSE FALSE FALSE FALSE FALSE FALSE FALSE FALSE FALSE FALSE FALSE FALSE FALSE FALSE FALSE FALSE FALSE
c do_switch::1::i!0@1#4 FALSE FALSE FALSE FALSE FALSE FALSE FALSE FALSE FALSE FALSE FALSE FALSE FALSE FALSE FALSE FALSE FALSE FALSE FALSE FALSE FALSE FALSE FALSE FALSE FALSE FALSE FALSE FALSE FALSE FALSE FALSE FALSE
c __CPROVER_memory_leak#1 FALSE FALSE FALSE FALSE FALSE FALSE FALSE FALSE FALSE FALSE FALSE FALSE FALSE FALSE FALSE FALSE FALSE FALSE FALSE FALSE FALSE FALSE FALSE FALSE FALSE FALSE FALSE FALSE FALSE FALSE FALSE FALSE
c do_switch::1::i!0@1#11 TRUE FALSE TRUE FALSE FALSE FALSE FALSE FALSE FALSE FALSE FALSE FALSE FALSE FALSE FALSE FALSE FALSE FALSE FALSE FALSE FALSE FALSE FALSE FALSE FALSE FALSE FALSE FALSE FALSE FALSE FALSE FALSE
c __CPROVER_next_thread_id#1 FALSE FALSE FALSE FALSE FALSE FALSE FALSE FALSE FALSE FALSE FALSE FALSE FALSE FALSE FALSE FALSE FALSE FALSE FALSE FALSE FALSE FALSE FALSE FALSE FALSE FALSE FALSE FALSE FALSE FALSE FALSE FALSE
c do_switch::1::i!0@1#12 FALSE FALSE FALSE FALSE FALSE FALSE FALSE FALSE FALSE FALSE FALSE FALSE FALSE FALSE FALSE FALSE FALSE FALSE FALSE FALSE FALSE FALSE FALSE FALSE FALSE FALSE FALSE FALSE FALSE FALSE FALSE FALSE
c symex::io::0 269 270 271 272 273 274 275 276 277 278 279 280 281 282 283 284 285 286 287 288 289 290 291 292 293 294 295 296 297 298 299 300
c __CPROVER_pipe_count#1 FALSE FALSE FALSE FALSE FALSE FALSE FALSE FALSE FALSE FALSE FALSE FALSE FALSE FALSE FALSE FALSE FALSE FALSE FALSE FALSE FALSE FALSE FALSE FALSE FALSE FALSE FALSE FALSE FALSE FALSE FALSE FALSE
c do_switch::1::i!0@1#13 FALSE TRUE TRUE FALSE FALSE FALSE FALSE FALSE FALSE FALSE FALSE FALSE FALSE FALSE FALSE FALSE FALSE FALSE FALSE FALSE FALSE FALSE FALSE FALSE FALSE FALSE FALSE FALSE FALSE FALSE FALSE FALSE
c __CPROVER_rounding_mode!0#1 FALSE FALSE FALSE FALSE FALSE FALSE FALSE FALSE FALSE FALSE FALSE FALSE FALSE FALSE FALSE FALSE FALSE FALSE FALSE FALSE FALSE FALSE FALSE FALSE FALSE FALSE FALSE FALSE FALSE FALSE FALSE FALSE
c do_switch::1::i!0@1#15 TRUE TRUE TRUE FALSE FALSE FALSE FALSE FALSE FALSE FALSE FALSE FALSE FALSE FALSE FALSE FALSE FALSE FALSE FALSE FALSE FALSE FALSE FALSE FALSE FALSE FALSE FALSE FALSE FALSE FALSE FALSE FALSE
c __CPROVER_thread_id!0#1 FALSE FALSE FALSE FALSE FALSE FALSE FALSE FALSE FALSE FALSE FALSE FALSE FALSE FALSE FALSE FALSE FALSE FALSE FALSE FALSE FALSE FALSE FALSE FALSE FALSE FALSE FALSE FALSE FALSE FALSE FALSE FALSE
c do_switch::1::i!0@1#17 FALSE FALSE FALSE TRUE FALSE FALSE FALSE FALSE FALSE FALSE FALSE FALSE FALSE FALSE FALSE FALSE FALSE FALSE FALSE FALSE FALSE FALSE FALSE FALSE FALSE FALSE FALSE FALSE FALSE FALSE FALSE FALSE
c do_switch::1::i!0@1#14 FALSE FALSE FALSE FALSE FALSE FALSE FALSE FALSE FALSE FALSE FALSE FALSE FALSE FALSE FALSE FALSE FALSE FALSE FALSE FALSE FALSE FALSE FALSE FALSE FALSE FALSE FALSE FALSE FALSE FALSE FALSE FALSE
c do_switch::1::i!0@1#16 FALSE FALSE FALSE FALSE FALSE FALSE FALSE FALSE FALSE FALSE FALSE FALSE FALSE FALSE FALSE FALSE FALSE FALSE FALSE FALSE FALSE FALSE FALSE FALSE FALSE FALSE FALSE FALSE FALSE FALSE FALSE FALSE
c do_switch::1::i!0@1#18 FALSE FALSE FALSE FALSE FALSE FALSE FALSE FALSE FALSE FALSE FALSE FALSE FALSE FALSE FALSE FALSE FALSE FALSE FALSE FALSE FALSE FALSE FALSE FALSE FALSE FALSE FALSE FALSE FALSE FALSE FALSE FALSE
c do_switch::1::i!0@1#19 TRUE FALSE FALSE TRUE FALSE FALSE FALSE FALSE FALSE FALSE FALSE FALSE FALSE FALSE FALSE FALSE FALSE FALSE FALSE FALSE FALSE FALSE FALSE FALSE FALSE FALSE FALSE FALSE FALSE FALSE FALSE FALSE
c do_switch::1::i!0@1#21 FALSE TRUE FALSE TRUE FALSE FALSE FALSE FALSE FALSE FALSE FALSE FALSE FALSE FALSE FALSE FALSE FALSE FALSE FALSE FALSE FALSE FALSE FALSE FALSE FALSE FALSE FALSE FALSE FALSE FALSE FALSE FALSE
c do_switch::1::i!0@1#22 FALSE FALSE FALSE FALSE FALSE FALSE FALSE FALSE FALSE FALSE FALSE FALSE FALSE FALSE FALSE FALSE FALSE FALSE FALSE FALSE FALSE FALSE FALSE FALSE FALSE FALSE FALSE FALSE FALSE FALSE FALSE FALSE
c do_switch::1::i!0@1#23 TRUE TRUE FALSE TRUE FALSE FALSE FALSE FALSE FALSE FALSE FALSE FALSE FALSE FALSE FALSE FALSE FALSE FALSE FALSE FALSE FALSE FALSE FALSE FALSE FALSE FALSE FALSE FALSE FALSE FALSE FALSE FALSE
c do_switch::1::i!0@1#24 FALSE FALSE FALSE FALSE FALSE FALSE FALSE FALSE FALSE FALSE FALSE FALSE FALSE FALSE FALSE FALSE FALSE FALSE FALSE FALSE FALSE FALSE FALSE FALSE FALSE FALSE FALSE FALSE FALSE FALSE FALSE FALSE
c do_switch::1::i!0@1#25 FALSE FALSE TRUE TRUE FALSE FALSE FALSE FALSE FALSE FALSE FALSE FALSE FALSE FALSE FALSE FALSE FALSE FALSE FALSE FALSE FALSE FALSE FALSE FALSE FALSE FALSE FALSE FALSE FALSE FALSE FALSE FALSE
c do_switch::1::i!0@1#26 FALSE FALSE FALSE FALSE FALSE FALSE FALSE FALSE FALSE FALSE FALSE FALSE FALSE FALSE FALSE FALSE FALSE FALSE FALSE FALSE FALSE FALSE FALSE FALSE FALSE FALSE FALSE FALSE FALSE FALSE FALSE FALSE
c do_switch::1::i!0@1#28 FALSE FALSE FALSE FALSE FALSE FALSE FALSE FALSE FALSE FALSE FALSE FALSE FALSE FALSE FALSE FALSE FALSE FALSE FALSE FALSE FALSE FALSE FALSE FALSE FALSE FALSE FALSE FALSE FALSE FALSE FALSE FALSE
c do_switch::1::i!0@1#29 FALSE TRUE TRUE TRUE FALSE FALSE FALSE FALSE FALSE FALSE FALSE FALSE FALSE FALSE FALSE FALSE FALSE FALSE FALSE FALSE FALSE FALSE FALSE FALSE FALSE FALSE FALSE FALSE FALSE FALSE FALSE FALSE
c do_switch::1::i!0@1#32 FALSE FALSE FALSE FALSE FALSE FALSE FALSE FALSE FALSE FALSE FALSE FALSE FALSE FALSE FALSE FALSE FALSE FALSE FALSE FALSE FALSE FALSE FALSE FALSE FALSE FALSE FALSE FALSE FALSE FALSE FALSE FALSE
c do_switch::1::i!0@1#33 FALSE FALSE FALSE FALSE TRUE FALSE FALSE FALSE FALSE FALSE FALSE FALSE FALSE FALSE FALSE FALSE FALSE FALSE FALSE FALSE FALSE FALSE FALSE FALSE FALSE FALSE FALSE FALSE FALSE FALSE FALSE FALSE
c do_switch::1::i!0@1#34 FALSE FALSE FALSE FALSE FALSE FALSE FALSE FALSE FALSE FALSE FALSE FALSE FALSE FALSE FALSE FALSE FALSE FALSE FALSE FALSE FALSE FALSE FALSE FALSE FALSE FALSE FALSE FALSE FALSE FALSE FALSE FALSE
c do_switch::1::i!0@1#35 TRUE FALSE FALSE FALSE TRUE FALSE FALSE FALSE FALSE FALSE FALSE FALSE FALSE FALSE FALSE FALSE FALSE FALSE FALSE FALSE FALSE FALSE FALSE FALSE FALSE FALSE FALSE FALSE FALSE FALSE FALSE FALSE
c ind 1 2 3 4 5 0
cr 1 2 3 4 5
